c Random generated cnf formula, satisfiable: false
p cnf 10 50
9 -3 -10 0
-4 5 -1 0
-10 7 -6 0
5 -1 4 0
-9 3 4 0
-10 6 9 0
-1 -9 5 0
-9 6 5 0
4 6 -8 0
-7 -8 1 0
5 -7 -10 0
-7 -8 -5 0
-7 -4 8 0
3 6 -5 0
4 -5 -7 0
7 -10 5 0
-7 -1 10 0
-4 3 -9 0
3 8 7 0
-1 9 10 0
1 5 -7 0
5 6 9 0
-6 -8 -10 0
10 -6 -7 0
4 -6 9 0
-2 6 -1 0
5 8 -2 0
-9 5 -6 0
10 -6 -8 0
-9 -7 -8 0
10 -3 -5 0
4 -6 2 0
9 -1 2 0
-8 -3 2 0
10 -5 3 0
-5 3 -8 0
-5 4 -2 0
1 8 -3 0
-8 -2 -10 0
1 5 8 0
-10 -7 -9 0
-10 -6 3 0
4 3 5 0
10 -3 -8 0
-2 -3 1 0
6 3 -5 0
-1 7 -9 0
-5 9 7 0
3 -10 6 0
5 -1 -4 0
